0 0 0 0
0 1 0 0
0 2 0 0
0 3 0 1
0 4 0 6
0 5 0 1
0 6 0 7
0 7 1 6
0 8 0 5
0 9 0 10
0 10 0 6
0 11 0 10
0 12 0 11
0 13 0 8
0 14 0 12
0 15 0 7
0 16 0 17
0 17 0 13
0 18 1 15
0 19 0 25
0 20 1 15
0 21 1 18
0 22 0 8
0 23 0 23
0 24 0 18
0 25 0 21
0 26 0 17
0 27 0 23
0 28 0 27
0 29 0 27
0 30 1 26
0 31 0 28
